Route #1: 1 1 11 60 57 17 28 44 1 
Route #2: 1 16 48 18 35 47 56 27 21 29 20 39 1 
Route #3: 1 34 19 7 14 51 9 1 
Route #4: 1 31 52 13 50 12 22 4 33 10 1 
Route #5: 1 58 25 6 41 8 2 40 1 
Route #6: 1 55 23 24 15 3 59 46 1 
Route #7: 1 43 26 32 42 30 37 1 
Route #8: 1 36 54 5 53 1 
Route #9: 1 49 38 1 
Route #10: 1 45 1 

Cost 1763.02
Time 0.0199


 * Other infos *

 Iterations: 61 Time: 0.0199 sec - 0.0003 min - 0.0000 horas
0.0000 h 0.0003 min
Problem dimension: 61
